CMPL model generation - running

CMPL version: 1.11.0
Authors: Thomas Schleiff, Mike Steglich
Distributed under the GPLv3 

create model instance ...
write model instance ...
CMPL model generation - finished

Solver - running


Welcome to IBM(R) ILOG(R) CPLEX(R) Interactive Optimizer 12.7.1.0
  with Simplex, Mixed Integer & Barrier Optimizers
5725-A06 5725-A29 5724-Y48 5724-Y49 5724-Y54 5724-Y55 5655-Y21
Copyright IBM Corp. 1988, 2017.  All Rights Reserved.

Type 'help' for a list of available commands.
Type 'help' followed by a command name for more
information on commands.

CPLEX> Specified objective sense: MINIMIZE
Selected objective  name:  line[1]
Selected RHS        name:  RHS
Selected bound      name:  BOUND
Problem '/tmp/cmpl.T24306.mps' read.
Read time = 0.09 sec. (10.13 ticks)
CPLEX> CPXPARAM_Read_APIEncoding                        "UTF-8"
Tried aggregator 3 times.
MIP Presolve eliminated 23943 rows and 37462 columns.
MIP Presolve modified 425 coefficients.
Aggregator did 807 substitutions.
Reduced MIP has 3172 rows, 4186 columns, and 12378 nonzeros.
Reduced MIP has 3976 binaries, 0 generals, 0 SOSs, and 0 indicators.
Presolve time = 0.07 sec. (50.39 ticks)
Found incumbent of value 1343.417686 after 0.12 sec. (85.43 ticks)
Probing fixed 12 vars, tightened 0 bounds.
Probing time = 0.01 sec. (5.45 ticks)
Tried aggregator 1 time.
MIP Presolve eliminated 0 rows and 12 columns.
MIP Presolve modified 61 coefficients.
Reduced MIP has 3172 rows, 4174 columns, and 12354 nonzeros.
Reduced MIP has 4174 binaries, 0 generals, 0 SOSs, and 0 indicators.
Presolve time = 0.01 sec. (10.38 ticks)
Probing time = 0.02 sec. (2.86 ticks)
Clique table members: 7629.
MIP emphasis: balance optimality and feasibility.
MIP search method: dynamic search.
Parallel mode: none, using 1 thread.
Root relaxation solution time = 0.01 sec. (7.33 ticks)

        Nodes                                         Cuts/
   Node  Left     Objective  IInf  Best Integer    Best Bound    ItCnt     Gap

*     0+    0                         1343.4177      -14.0120           101.04%
      0     0      309.4253     3     1343.4177      309.4253      255   76.97%
*     0+    0                          309.4939      309.4253             0.02%
*     0     0      integral     0      309.4545       Cuts: 9      264    0.00%
      0     0        cutoff            309.4545      309.4545      264    0.00%
Elapsed time = 0.21 sec. (134.12 ticks, tree = 0.01 MB, solutions = 3)

GUB cover cuts applied:  1
Cover cuts applied:  5
Gomory fractional cuts applied:  3

Root node processing (before b&c):
  Real time             =    0.21 sec. (135.95 ticks)
Sequential b&c:
  Real time             =    0.00 sec. (0.00 ticks)
                          ------------
Total (root+branch&cut) =    0.21 sec. (135.95 ticks)

Solution pool: 3 solutions saved.

MIP - Integer optimal solution:  Objective =  3.0945446500e+02
Solution time =    0.21 sec.  Iterations = 264  Nodes = 0
Deterministic time = 136.07 ticks  (644.63 ticks/sec)

CPLEX> Incumbent solution written to file '/tmp/cmpl.T24306.gsol'.
CPLEX> 
CMPL: Time used for model generation: 1 seconds
CMPL: Time used for solving the model: 1 seconds


Solution written to ASCII file: results/output_generated_conf_0.6/2016-02-01-5/fair-nonlinear.sol

Solver - finished
